
Value of objective function: 0

Actual values of the variables:
pL1_div_from_law                0
comp_pos0                       0
comp_neg0                       0
comp_pos1                       0
comp_neg1                       0
comp_pos2                       0
comp_neg2                       0
comp_pos3                       0
comp_neg3                       0
comp_pos4                       0
comp_neg4                       0
comp_pos5                       0
comp_neg5                       0
comp_pos6                       0
comp_neg6                       0
comp_pos7                       0
comp_neg7                       0
comp_pos8                       0
comp_neg8                       0
comp_pos9                       0
comp_neg9                       0
comp_pos10                      0
comp_neg10                      0
comp_pos11                      0
comp_neg11                      0
comp_pos12                      0
comp_neg12                      0
comp_pos13                      0
comp_neg13                      0
z_c0_t0               1.32138e+10
p0_c0_t0              4.64473e+09
p1_c0_t0              1.05272e+08
p2_c0_t0              7.37733e+09
p3_c0_t0               1.0865e+09
diff0                           0
normdiff0                       0
z_c0_t1               1.47752e+10
p0_c0_t1              3.99566e+09
p1_c0_t1              1.18054e+08
p2_c0_t1              8.43416e+09
p3_c0_t1              2.22732e+09
diff1                           0
normdiff1                       0
z_c1_t0               1.65566e+10
p0_c1_t0              4.69615e+09
p1_c1_t0              1.36618e+08
p2_c1_t0              1.10419e+10
p3_c1_t0              6.81918e+08
diff2                           0
normdiff2                       0
z_c1_t1               1.94959e+10
p0_c1_t1              4.68546e+09
p1_c1_t1              1.90527e+08
p2_c1_t1              1.38242e+10
p3_c1_t1              7.95651e+08
diff3                           0
normdiff3                       0
z_c2_t0               7.24754e+09
p0_c2_t0              1.60228e+09
p1_c2_t0              5.57491e+07
p2_c2_t0              4.98671e+09
p3_c2_t0              6.02802e+08
diff4                           0
normdiff4                       0
z_c2_t1               7.97123e+09
p0_c2_t1              1.28771e+09
p1_c2_t1              6.38795e+07
p2_c2_t1              6.08029e+09
p3_c2_t1              5.39345e+08
diff5                           0
normdiff5                       0
z_c3_t0               1.22612e+10
p0_c3_t0               2.8989e+09
p1_c3_t0              9.43659e+07
p2_c3_t0              7.81868e+09
p3_c3_t0              1.44924e+09
diff6                           0
normdiff6                       0
z_c3_t1               1.42798e+10
p0_c3_t1              3.24615e+09
p1_c3_t1              9.56852e+07
p2_c3_t1               8.6103e+09
p3_c3_t1              2.32764e+09
diff7                           0
normdiff7                       0
z_c4_t0               7.97197e+09
p0_c4_t0               1.2795e+09
p1_c4_t0              1.05596e+08
p2_c4_t0              6.10293e+09
p3_c4_t0              4.83942e+08
diff8                           0
normdiff8                       0
z_c4_t1                8.9819e+09
p0_c4_t1              1.30983e+09
p1_c4_t1              9.62536e+07
p2_c4_t1              7.20765e+09
p3_c4_t1              3.68169e+08
diff9                           0
normdiff9                       0
z_c5_t0               1.00642e+10
p0_c5_t0              2.25635e+09
p1_c5_t0              8.90991e+07
p2_c5_t0              7.51725e+09
p3_c5_t0              2.01449e+08
diff10                          0
normdiff10                      0
z_c5_t1                1.2016e+10
p0_c5_t1              1.64821e+09
p1_c5_t1              8.82549e+07
p2_c5_t1              9.21308e+09
p3_c5_t1              1.06646e+09
diff11                          0
normdiff11                      0
z_c6_t0               1.81204e+10
p0_c6_t0              4.11992e+09
p1_c6_t0              1.12562e+08
p2_c6_t0              1.32303e+10
p3_c6_t0              6.57612e+08
diff12                          0
normdiff12                      0
z_c6_t1               2.06345e+10
p0_c6_t1              4.38574e+09
p1_c6_t1              1.03172e+08
p2_c6_t1              1.56309e+10
p3_c6_t1              5.14685e+08
diff13                          0
normdiff13                      0
